set Stages := FirstStage SecondStage ; 
set Nodes := RootNode 
Nodescenario2 
Nodescenario3 
Nodescenario4 
; 
param NodeStage := RootNode FirstStage 
Nodescenario2 SecondStage 
Nodescenario3 SecondStage 
Nodescenario4 SecondStage 
; 
 Children[RootNode] := Nodescenario2 
Nodescenario3 
Nodescenario4 
; 
param ConditionalProbability := RootNode = 1.0 
Nodescenario2 = 0.33333 
Nodescenario3 = 0.33333999999999997 
Nodescenario4 = 0.33333 
; 
set Scenarios := Scenarioscenario2 
Scenarioscenario3 
Scenarioscenario4 
; 
param ScenarioLeafNode := Scenarioscenario2  Nodescenario2 
Scenarioscenario3  Nodescenario3 
Scenarioscenario4  Nodescenario4 
; 
set StageVariables [FirstStage] := z1[*] 
 p_bat_Nutz[*] 
 p_bat_Lade[*] 
 p_einsp[*] 
 bat[*] 
 p_Nutz[*]; 
set StageVariables[SecondStage] := p_kauf[*]; 
param StageCost := FirstStage FirstStageCost 
 SecondStage SecondStageCost;